
Gurobi 11.0.3 (linux64) logging started Mon Aug 25 16:46:51 2025

Set parameter LogFile to value "/home/yihong/Coding/OR_SUC/SUC_epstheta_results_bigM100000_thread4/case24_ieee_rts_theta0.001_epsilon0.1_gurobi_seed250000_num_gen100_N_WDR50_load_scaling_factor1_ori_eps_T2quadra_cost_bc1.03.txt"
Set parameter TimeLimit to value 3600
Gurobi Optimizer version 11.0.3 build v11.0.3rc0 (linux64 - "Ubuntu 20.04.6 LTS")

CPU model: AMD EPYC 7532 32-Core Processor, instruction set [SSE2|AVX|AVX2]
Thread count: 64 physical cores, 128 logical processors, using up to 4 threads

Academic license 2399124 - for non-commercial use only - registered to yi___@ed.ac.uk
Optimize a model with 4290 rows, 2531 columns and 107910 nonzeros
Model fingerprint: 0x4246a6c9
Model has 200 quadratic constraints
Variable types: 2331 continuous, 200 integer (200 binary)
Coefficient statistics:
  Matrix range     [3e-04, 2e+03]
  QMatrix range    [2e-03, 8e-03]
  QLMatrix range   [3e-01, 6e+01]
  Objective range  [1e+00, 1e+00]
  Bounds range     [1e+00, 1e+00]
  RHS range        [5e-02, 8e+03]
Presolve removed 3720 rows and 1282 columns
Presolve time: 0.02s
Presolved: 570 rows, 1249 columns, 4331 nonzeros
Presolved model has 200 quadratic constraint(s)
Variable types: 1049 continuous, 200 integer (200 binary)

Root relaxation: objective 2.037153e+03, 397 iterations, 0.00 seconds (0.00 work units)

    Nodes    |    Current Node    |     Objective Bounds      |     Work
 Expl Unexpl |  Obj  Depth IntInf | Incumbent    BestBd   Gap | It/Node Time

     0     0 2037.15303    0    6          - 2037.15303      -     -    0s
     0     0 2342.07187    0   82          - 2342.07187      -     -    0s
     0     0 13626.5394    0   78          - 13626.5394      -     -    0s
     0     0 14076.7654    0   78          - 14076.7654      -     -    0s
     0     0 28716.7769    0   46          - 28716.7769      -     -    0s
     0     0 28732.5384    0   46          - 28732.5384      -     -    0s
     0     0 28753.0385    0   12          - 28753.0385      -     -    0s
     0     0 28753.0763    0   12          - 28753.0763      -     -    0s
     0     0 28753.0763    0   12          - 28753.0763      -     -    0s
     0     2 28753.0854    0   12          - 28753.0854      -     -    0s
H   41    36                    28764.619448 28755.7283  0.03%   3.9    0s
*   41    36              10    28764.619448 28755.7283  0.03%   3.9    0s
H   43    36                    28755.728830 28755.7283  0.00%   3.8    0s
*   43    36              11    28755.728830 28755.7283  0.00%   3.9    0s

Cutting planes:
  Gomory: 10
  Implied bound: 91
  MIR: 34
  Flow cover: 144
  RLT: 3

Explored 47 nodes (1728 simplex iterations) in 0.33 seconds (0.19 work units)
Thread count was 4 (of 128 available processors)

Solution count 3: 28755.7 28755.7 28764.6 

Optimal solution found (tolerance 1.00e-03)
Warning: max constraint violation (1.2137e-07) exceeds tolerance
Best objective 2.875572882948e+04, best bound 2.875572831238e+04, gap 0.0000%

Gurobi 11.0.3 (linux64) logging started Mon Aug 25 16:46:51 2025

Set parameter LogFile to value "/home/yihong/Coding/OR_SUC/SUC_epstheta_results_bigM100000_thread4/case24_ieee_rts_theta0.001_epsilon0.1_gurobi_seed250000_num_gen100_N_WDR50_load_scaling_factor1_ori_eps_T2quadra_cost_bc1.03.txt"
Set parameter TimeLimit to value 3600
Gurobi Optimizer version 11.0.3 build v11.0.3rc0 (linux64 - "Ubuntu 20.04.6 LTS")

CPU model: AMD EPYC 7532 32-Core Processor, instruction set [SSE2|AVX|AVX2]
Thread count: 64 physical cores, 128 logical processors, using up to 4 threads

Academic license 2399124 - for non-commercial use only - registered to yi___@ed.ac.uk
Optimize a model with 11154 rows, 2532 columns and 850651 nonzeros
Model fingerprint: 0x6761f2c1
Model has 201 quadratic constraints
Variable types: 2332 continuous, 200 integer (200 binary)
Coefficient statistics:
  Matrix range     [3e-04, 2e+03]
  QMatrix range    [2e-03, 5e+01]
  QLMatrix range   [3e-01, 6e+01]
  Objective range  [1e+00, 1e+00]
  Bounds range     [1e-01, 1e+00]
  RHS range        [6e-02, 3e+04]
  QRHS range       [5e-02, 5e-02]
Presolve removed 3406 rows and 1121 columns
Presolve time: 0.58s
Presolved: 7950 rows, 1612 columns, 171591 nonzeros
Presolved model has 200 quadratic constraint(s)
Presolved model has 1 bilinear constraint(s)
Warning: Model contains variables with very large bounds participating
         in product terms.
         Presolve was not able to compute smaller bounds for these variables.
         Consider bounding these variables or reformulating the model.


Solving non-convex MIQCP

Variable types: 1408 continuous, 204 integer (204 binary)

Root relaxation: objective 0.000000e+00, 686 iterations, 0.11 seconds (0.30 work units)

    Nodes    |    Current Node    |     Objective Bounds      |     Work
 Expl Unexpl |  Obj  Depth IntInf | Incumbent    BestBd   Gap | It/Node Time

     0     0    0.00000    0    5          -    0.00000      -     -    2s
     0     0    0.00000    0    5          -    0.00000      -     -    2s
     0     0    0.00000    0    3          -    0.00000      -     -    2s
     0     0    0.00000    0    3          -    0.00000      -     -    2s
     0     0    0.00000    0    3          -    0.00000      -     -    2s
     0     2    0.00000    0    3          -    0.00000      -     -    4s
H   12    10                       0.0010845    0.00000   100%  21.3    4s
*   12    10               4       0.0010845    0.00000   100%  21.5    4s
H   22    11                       0.0005423    0.00000   100%  42.0    4s
*   22    11               5       0.0005423    0.00000   100%  42.4    4s
H   27    12                       0.0003866    0.00000   100%  42.9    5s
*   27    12               6       0.0003866    0.00000   100%  43.7    5s
H   28    12                       0.0002711    0.00000   100%  42.2    5s
*   28    12               7       0.0002711    0.00000   100%  43.6    5s
H   53    30                       0.0001721    0.00000   100%  65.8    6s
*   53    30              13       0.0001721    0.00000   100%  65.8    6s
H   61    25                       0.0001710    0.00000   100%  57.7    6s
H   71    23                       0.0001679    0.00000   100%  50.9    6s
*   71    23              16       0.0001679    0.00000   100%  51.0    6s
H   75    23                       0.0001678    0.00000   100%  60.6    6s
*   85    24              18       0.0001677    0.00000   100%  63.0    6s
H   90    22                       0.0001675    0.00000   100%  59.8    7s
*   90    22               9       0.0001675    0.00000   100%  59.8    7s
H   94    22                       0.0001668    0.00000   100%  57.6    7s
*   94    22               9       0.0001668    0.00000   100%  57.8    7s
*  116    13              10       0.0001667    0.00011  36.8%  53.6    7s
H  130    13                       0.0001560    0.00011  27.1%  48.2    7s
*  130    13               9       0.0001560    0.00011  27.1%  48.5    7s
*  149    16              17       0.0001557    0.00015  1.14%  42.6    7s
*  167    16              16       0.0001557    0.00015  1.14%  38.3    7s
*  168    16              15       0.0001557    0.00015  1.14%  38.1    7s
*  169    16              14       0.0001557    0.00015  1.14%  37.9    7s

Cutting planes:
  Implied bound: 3
  MIR: 3
  Flow cover: 1
  Inf proof: 12
  RLT: 1

Explored 188 nodes (7380 simplex iterations) in 7.62 seconds (11.17 work units)
Thread count was 4 (of 128 available processors)

Solution count 10: 0.000155697 0.000155699 0.000155701 ... 0.000167819

Optimal solution found (tolerance 1.00e-03)
Best objective 1.556971808508e-04, best bound 1.556971808508e-04, gap 0.0000%
